(set-logic QF_S)
(declare-fun _var_0xINPUT_115131_() String)
(declare-fun __woorpje_diseq_pref0_() String)
(declare-fun __woorpje_diseq_suf_l0_() String)
(declare-fun __woorpje_diseq_suf_r0_() String)
(assert (=(str.++  "BKs9vZejCA" "")(str.++ __woorpje_diseq_pref0_  "Z" __woorpje_diseq_suf_l0_  "")) )
(assert (=(str.++ _var_0xINPUT_115131_  "")(str.++ __woorpje_diseq_pref0_  "A" __woorpje_diseq_suf_r0_  "")) )
(check-sat)
